db/inputs/2354677082127432009184173091390310236.smt2
(set-logic QF_FP)
(declare-const x0 (_ FloatingPoint 11 53))
(declare-const x1 (_ FloatingPoint 11 53))
(declare-const x2 (_ FloatingPoint 11 53))
(declare-const x3 (_ FloatingPoint 11 53))
(declare-const x4 (_ FloatingPoint 11 53))
(declare-const x5 (_ FloatingPoint 11 53))
(declare-const x6 (_ FloatingPoint 11 53))
(declare-const x7 (_ FloatingPoint 11 53))
(declare-const x8 (_ FloatingPoint 11 53))
(assert (fp.lt (fp.neg (fp.sub RNE x3 x6)) (fp.add RNE (fp.mul RNE x2 x3) (fp.div RNE x1 x7))))
(assert (fp.eq (fp.sub RNE (fp.add RNE x5 x7) (fp.sub RNE x4 x7)) (fp.sub RNE (fp.div RNE x7 x3) (fp.sub RNE x8 x6))))
(assert (fp.geq (fp.neg (fp.neg x6)) (fp.add RNE (fp.add RNE x4 x8) (fp.mul RNE x3 x7))))
(check-sat)
