db/data/2354677082127432009184173091390310236.z3.out
-------------------
2500.074153496
